c seed= 784596155
p cnf 8 32
2 8 -4 0
1 3 -7 0
5 8 6 0
2 -6 -5 0
-8 -3 5 0
4 8 2 0
3 6 -7 0
6 -2 1 0
8 3 -4 0
-6 7 -1 0
-1 7 6 0
-6 4 1 0
-2 -8 -4 0
8 7 3 0
3 2 -8 0
-1 -8 2 0
2 -3 -5 0
6 -1 2 0
1 7 6 0
6 8 -7 0
-2 -4 -5 0
-2 4 5 0
4 3 6 0
-7 8 -3 0
-1 -7 -2 0
2 -8 7 0
-8 -2 -6 0
-2 -4 1 0
3 4 -2 0
1 -4 -6 0
-5 -1 -2 0
-2 7 1 0
